CapLotSizing_PM/src/Instancias/NCHSHT/12i6p2m/NBA02.OUT
 CG ITER, OVMR, OVMRUB =           1   33051.9140625   33051.9140625
 CG ITER, OVMR, OVMRUB =           2   33051.9140625   33051.9140625
 CG ITER, OVMR, OVMRUB =           3   28337.5117188   30548.2910156
 CG ITER, OVMR, OVMRUB =           4   25545.1132812   30067.0585938
 CG ITER, OVMR, OVMRUB =           5   24552.0292969   27512.7988281
 CG ITER, OVMR, OVMRUB =           6   24444.6875000   27512.7988281
 CG ITER, OVMR, OVMRUB =           7   24257.1933594   27512.7988281
 CG ITER, OVMR, OVMRUB =           8   24163.3300781   27512.7988281
 CG ITER, OVMR, OVMRUB =           9   24099.4023438   27512.7988281
 CG ITER, OVMR, OVMRUB =          10   23998.3574219   27512.7988281
 CG ITER, OVMR, OVMRUB =          11   23991.7910156   27512.7988281
 CG ITER, OVMR, OVMRUB =          12   23990.6562500   27512.7988281
 CG ITER, OVMR, OVMRUB =          13   23968.9062500   27512.7988281
 CG ITER, OVMR, OVMRUB =          14   23968.9101562   27512.7988281
 CG ITER, OVMR, OVMRUB =          15   23966.9531250   27512.7988281
 CG ITER, OVMR, OVMRUB =          16   23964.1699219   27512.7988281
 CG ITER, OVMR, OVMRUB =          17   23962.5800781   27512.7988281
 CG ITER, OVMR, OVMRUB =          18   23954.9238281   27512.7988281
 CG ITER, OVMR, OVMRUB =          19   23952.0410156   27512.7988281
 CG ITER, OVMR, OVMRUB =          20   23950.7109375   26292.6835938
 CG ITER, OVMR, OVMRUB =          21   23954.0566406   26292.6835938
 CG ITER, OVMR, OVMRUB =          22   23954.5449219   26292.6835938
 CG ITER, OVMR, OVMRUB =          23   23954.4257812   26292.6835938
 CG ITER, OVMR, OVMRUB =          24   23951.9531250   26292.6835938
 CG ITER, OVMR, OVMRUB =          25   23950.4179688   26292.6835938
 CG ITER, OVMR, OVMRUB =          26   23955.2128906   25922.7714844
 CG ITER, OVMR, OVMRUB =          27   23954.2421875   25922.7714844
 CG ITER, OVMR, OVMRUB =          28   23953.2207031   25922.7714844
 CG ITER, OVMR, OVMRUB =          29   23953.2207031   25922.7714844
OVLB =   23953.2207031 OVLUB =   25922.7714844 TIME =       2.4800000
